unsat
(:added-eqs                   2426327
 :arith-eq-adapter            3441
 :arith-bound-propagations-lp 127464
 :arith-conflicts             449
 :arith-diseq                 164775
 :arith-fixed-eqs             203889
 :arith-lower                 140308
 :arith-make-feasible         68053
 :arith-max-columns           1232
 :arith-max-rows              687
 :arith-offset-eqs            62969
 :arith-upper                 234298
 :binary-propagations         11740813
 :conflicts                   25794
 :decisions                   1539235
 :del-clause                  24366
 :elim-unconstrained          4
 :max-memory                  53.76
 :memory                      36.16
 :minimized-lits              221956
 :mk-bool-var                 21446
 :mk-clause                   36049
 :mk-clause-binary            56835
 :num-allocs                  355333290
 :num-checks                  1
 :propagations                15969216
 :restarts                    148
 :rlimit-count                45477584
 :time                        14.13
 :total-time                  14.31)
